RT is False
Default write of storage_offers_DA.csv just to have a file (but constraint should be inactive)
Reading model...
...model read.
creating competitive generators file...
...competitive generators recorded.
Loading data...
.. day-ahead data read.
Compiling instance...
...instance created.
Creating Offer Mitigation (model will solve as dispatch if TRUE)...
NOTE: storage offers will not be mitigated
...storage offer mitigation file created
Converting model to MPEC...
...converted
NOTE: initial MIP solve with only storage competitive to get feasible solution
Solving...

Welcome to IBM(R) ILOG(R) CPLEX(R) Interactive Optimizer 12.9.0.0
  with Simplex, Mixed Integer & Barrier Optimizers
5725-A06 5725-A29 5724-Y48 5724-Y49 5724-Y54 5724-Y55 5655-Y21
Copyright IBM Corp. 1988, 2019.  All Rights Reserved.

Type 'help' for a list of available commands.
Type 'help' followed by a command name for more
information on commands.

CPLEX> Logfile 'cplex.log' closed.
Logfile 'C:\Users\llavin\Desktop\test85\logs\tmp9pf_wiup.cplex.log' open.
CPLEX> New value for parallel optimization mode: -1
CPLEX> New value for mixed integer optimality gap tolerance: 0.001
CPLEX> New value for deterministic time limit in ticks: 100000
CPLEX> Problem 'C:\Users\llavin\Desktop\test85\logs\tmpxkf1_zov.pyomo.lp' read.
Read time = 0.24 sec. (14.72 ticks)
CPLEX> Problem name         : C:\Users\llavin\Desktop\test85\logs\tmpxkf1_zov.pyomo.lp
Objective sense      : Maximize
Variables            :   53803  [Nneg: 1,  Box: 21998,  Free: 4464,
                                 Binary: 27340]
Objective nonzeros   :    9053
Linear constraints   :  123205  [Less: 41346,  Greater: 59096,  Equal: 22763]
  Nonzeros           :  289306
  RHS nonzeros       :   67490

Variables            : Min LB: -5000.000        Max UB: 1000000.       
Objective nonzeros   : Min   : 0.2000000        Max   : 2500.000       
Linear constraints   :
  Nonzeros           : Min   : 0.2000000        Max   : 1000000.       
  RHS nonzeros       : Min   : 0.2000000        Max   : 1000000.       
CPLEX> CPXPARAM_Parallel                                -1
CPXPARAM_DetTimeLimit                            100000
CPXPARAM_MIP_Tolerances_MIPGap                   0.001
Tried aggregator 3 times.
MIP Presolve eliminated 88665 rows and 18987 columns.
MIP Presolve added 3395 rows and 0 columns.
MIP Presolve modified 24854 coefficients.
Aggregator did 12984 substitutions.
Reduced MIP has 24951 rows, 21276 columns, and 68654 nonzeros.
Reduced MIP has 8410 binaries, 0 generals, 0 SOSs, and 0 indicators.
Presolve time = 0.27 sec. (167.11 ticks)
Probing fixed 392 vars, tightened 4040 bounds.
Probing time = 0.08 sec. (17.73 ticks)
Tried aggregator 2 times.
MIP Presolve eliminated 885 rows and 786 columns.
MIP Presolve modified 3157 coefficients.
Aggregator did 35 substitutions.
Reduced MIP has 24031 rows, 20455 columns, and 65983 nonzeros.
Reduced MIP has 8018 binaries, 0 generals, 0 SOSs, and 0 indicators.
Presolve time = 0.11 sec. (92.36 ticks)
Probing fixed 0 vars, tightened 295 bounds.
Probing time = 0.14 sec. (21.88 ticks)
Clique table members: 43936.
MIP emphasis: balance optimality and feasibility.
MIP search method: dynamic search.
Parallel mode: opportunistic, using up to 32 threads.
Root relaxation solution time = 0.36 sec. (577.90 ticks)

        Nodes                                         Cuts/
   Node  Left     Objective  IInf  Best Integer    Best Bound    ItCnt     Gap

      0     0     6684.3446    74                   6684.3446     5020         
      0     0     6684.3444     5                    Cuts: 17     5027         
      0     0     6684.3444     7                     Cuts: 2     5030         
      0     0     6684.3318     9                     Cuts: 9     5043         
*     0+    0                         3603.5416     4732.0970            31.32%
      0     3        cutoff           3603.5416       Cuts: 4     5069   31.32%
Elapsed time = 5.20 sec. (2485.80 ticks, tree = 0.02 MB, solutions = 3)
*    78     4      integral     0     4323.2658     4323.2658     5404    0.00%

Cover cuts applied:  2
Implied bound cuts applied:  4
Flow cuts applied:  9
Mixed integer rounding cuts applied:  1
Gomory fractional cuts applied:  4

Root node processing (before b&c):
  Real time             =    3.89 sec. (2474.58 ticks)
Parallel b&c, 32 threads:
  Real time             =    1.95 sec. (276.56 ticks)
  Sync time (average)   =    1.12 sec.
  Wait time (average)   =    0.00 sec.
                          ------------
Total (root+branch&cut) =    5.84 sec. (2751.14 ticks)

Solution pool: 6 solutions saved.

MIP - Integer optimal solution:  Objective =  4.3232658157e+03
Solution time =    5.84 sec.  Iterations = 5445  Nodes = 83
Deterministic time = 2751.29 ticks  (470.87 ticks/sec)

CPLEX> Incumbent solution written to file 'C:\Users\llavin\Desktop\test85\logs\tmpdsadz_8v.cplex.sol'.
CPLEX> NOTE: no warmstart specified for MIP iteration, default behavior is true
NOTE: resolving with all competitive generators using storage-only solution to warmstart
Solving...

Welcome to IBM(R) ILOG(R) CPLEX(R) Interactive Optimizer 12.9.0.0
  with Simplex, Mixed Integer & Barrier Optimizers
5725-A06 5725-A29 5724-Y48 5724-Y49 5724-Y54 5724-Y55 5655-Y21
Copyright IBM Corp. 1988, 2019.  All Rights Reserved.

Type 'help' for a list of available commands.
Type 'help' followed by a command name for more
information on commands.

CPLEX> Logfile 'cplex.log' closed.
Logfile 'C:\Users\llavin\Desktop\test85\logs\tmp7t3_4gpd.cplex.log' open.
CPLEX> New value for parallel optimization mode: -1
CPLEX> New value for mixed integer optimality gap tolerance: 0.001
CPLEX> New value for deterministic time limit in ticks: 100000
CPLEX> Problem 'C:\Users\llavin\Desktop\test85\logs\tmpkuix_9e_.pyomo.lp' read.
Read time = 0.23 sec. (14.75 ticks)
CPLEX> MIP start file 'C:\Users\llavin\Desktop\test85\logs\tmpmttt42cj.cplex.mst' read.
CPLEX> Problem name         : C:\Users\llavin\Desktop\test85\logs\tmpkuix_9e_.pyomo.lp
Objective sense      : Maximize
Variables            :   54523  [Nneg: 1,  Box: 22718,  Free: 4464,
                                 Binary: 27340]
Objective nonzeros   :    9749
Linear constraints   :  123205  [Less: 41346,  Greater: 59096,  Equal: 22763]
  Nonzeros           :  289306
  RHS nonzeros       :   67490

Variables            : Min LB: -5000.000        Max UB: 1000000.       
Objective nonzeros   : Min   : 0.2000000        Max   : 2500.000       
Linear constraints   :
  Nonzeros           : Min   : 0.2000000        Max   : 1000000.       
  RHS nonzeros       : Min   : 0.2000000        Max   : 1000000.       
CPLEX> CPXPARAM_Parallel                                -1
CPXPARAM_DetTimeLimit                            100000
CPXPARAM_MIP_Tolerances_MIPGap                   0.001
Warning:  No solution found from 1 MIP starts.
Retaining values of one MIP start for possible repair.
Tried aggregator 3 times.
MIP Presolve eliminated 88665 rows and 19707 columns.
MIP Presolve added 3395 rows and 0 columns.
MIP Presolve modified 24854 coefficients.
Aggregator did 12984 substitutions.
Reduced MIP has 24951 rows, 21276 columns, and 68654 nonzeros.
Reduced MIP has 8410 binaries, 0 generals, 0 SOSs, and 0 indicators.
Presolve time = 0.28 sec. (167.46 ticks)
Probing fixed 392 vars, tightened 4040 bounds.
Probing time = 0.08 sec. (17.73 ticks)
Tried aggregator 2 times.
MIP Presolve eliminated 885 rows and 786 columns.
MIP Presolve modified 3157 coefficients.
Aggregator did 35 substitutions.
Reduced MIP has 24031 rows, 20455 columns, and 65983 nonzeros.
Reduced MIP has 8018 binaries, 0 generals, 0 SOSs, and 0 indicators.
Presolve time = 0.13 sec. (92.36 ticks)
Probing fixed 0 vars, tightened 295 bounds.
Probing time = 0.14 sec. (21.88 ticks)
Clique table members: 43936.
MIP emphasis: balance optimality and feasibility.
MIP search method: dynamic search.
Parallel mode: opportunistic, using up to 32 threads.
Root relaxation solution time = 0.42 sec. (601.60 ticks)

        Nodes                                         Cuts/
   Node  Left     Objective  IInf  Best Integer    Best Bound    ItCnt     Gap

      0     0   114094.9906   194                 114094.9906     5615         
      0     0   111861.9051   143                   Cuts: 135     5796         
      0     0   111382.2716   147                    Cuts: 73     5902         
      0     0   111016.7869   149                    Cuts: 71     5969         
      0     0   110434.1505   151                     Cuts: 8     5986         
      0     0   110080.6566   146                     Cuts: 9     6010         
      0     0   109689.5264   147                    Cuts: 12     6035         
      0     0   109665.9511   148                    Cuts: 11     6045         
      0     0   109665.9511   149                     Cuts: 3     6047         
Repair heuristic found nothing.
      0     2   109665.9511   149                    Cuts: 12     6047         
Elapsed time = 8.05 sec. (3772.12 ticks, tree = 0.02 MB, solutions = 0)
    623   124   101448.6056    73                 106893.1968     8709         
   1133   364    93965.9158    90                 106893.1968    17783         
   1732   688    68082.1984    53                 106893.1968    25817         
   2283  1015    39811.2258    39                 106893.1968    35702         
   2957  1615    57677.7363    64                 106847.2054    44948         
*  3001  1710      integral     0    41072.4515   106847.2054    46467  160.14%
   3558  1868    20163.9140    50    41072.4515   106555.0422    51378  159.43%
   4214  1627        cutoff          41072.4515   105260.4335    57670  156.28%
*  4458  1745      integral     0    42701.9069   105099.4056    69591  146.12%
   5181  1750    51912.7283    22    42701.9069   103918.5627    84222  143.36%
   8077   871        cutoff          42701.9069    47727.3377   139642   11.77%
Elapsed time = 24.64 sec. (6717.66 ticks, tree = 3.83 MB, solutions = 4)
   9822   367    infeasible          42904.1028    43001.6094   175830    0.23%

Cover cuts applied:  32
Implied bound cuts applied:  22
Flow cuts applied:  169
Mixed integer rounding cuts applied:  18
Zero-half cuts applied:  1
Gomory fractional cuts applied:  8

Root node processing (before b&c):
  Real time             =    5.89 sec. (3715.97 ticks)
Parallel b&c, 32 threads:
  Real time             =   20.95 sec. (4059.74 ticks)
  Sync time (average)   =    2.11 sec.
  Wait time (average)   =    0.00 sec.
                          ------------
Total (root+branch&cut) =   26.84 sec. (7775.72 ticks)

Solution pool: 6 solutions saved.

MIP - Integer optimal, tolerance (0.001/1e-06):  Objective =  4.2904102833e+04
Current MIP best bound =  4.2946703333e+04 (gap = 42.6005, 0.10%)
Solution time =   26.86 sec.  Iterations = 183189  Nodes = 9831 (42)
Deterministic time = 7775.87 ticks  (289.51 ticks/sec)

CPLEX> Incumbent solution written to file 'C:\Users\llavin\Desktop\test85\logs\tmpkb1ncoig.cplex.sol'.
CPLEX> Exporting results... 
